# Objective value = 3.0263113833135708e+02
x[0] 1
x[1] 1
x[2] 1
x[3] 1
x[4] 1
x[5] 1
x[6] 0
x[7] 0
x[8] 1
x[9] 0
x[10] 0
x[11] 1
x[12] 1
x[13] 1
x[14] 1
x[15] 0
x[16] 1
x[17] 1
x[18] 1
x[19] 1
x[20] 1
x[21] 0
x[22] 0
x[23] 0
x[24] 0
x[25] 0
x[26] 0
x[27] 1
x[28] 1
x[29] 0
x[30] 1
x[31] 1
x[32] 0
x[33] 1
x[34] 0
x[35] 1
x[36] 0
x[37] 1
x[38] 1
x[39] 0
x[40] 1
x[41] 1
x[42] 0
x[43] 1
x[44] 1
x[45] 1
x[46] 1
x[47] 1
x[48] 0
x[49] 0
x[50] 1
x[51] 0
x[52] 0
x[53] 0
x[54] 0
x[55] 0
x[56] 0
x[57] 1
x[58] 1
x[59] 1
x[60] 0
x[61] 1
x[62] 1
x[63] 1
x[64] 1
x[65] 0
x[66] 0
x[67] 1
x[68] 1
x[69] 1
x[70] 1
x[71] 0
x[72] 0
x[73] 0
x[74] 0
x[75] 1
x[76] 0
x[77] 0
x[78] 1
x[79] 0
x[80] 1
x[81] 0
x[82] 1
x[83] 0
x[84] 0
x[85] 0
x[86] 1
x[87] 0
x[88] 1
x[89] 1
x[90] 0
x[91] 1
x[92] 1
x[93] 0
x[94] 0
x[95] 1
x[96] 1
x[97] 1
x[98] 1
x[99] 0
x[100] 1
x[101] 1
x[102] 0
x[103] 1
x[104] 1
x[105] 0
x[106] 0
x[107] 1
x[108] 1
x[109] 0
x[110] 0
x[111] 1
x[112] 0
x[113] 1
x[114] 1
x[115] 1
x[116] 1
x[117] 1
x[118] 0
x[119] 0
x[120] 1
x[121] 0
x[122] 1
x[123] 1
x[124] 0
x[125] 1
x[126] 0
x[127] 1
x[128] 1
x[129] 0
x[130] 1
x[131] 0
x[132] 1
x[133] 0
x[134] 1
x[135] 1
x[136] 1
x[137] 1
x[138] 0
x[139] 0
x[140] 0
x[141] 1
x[142] 0
x[143] 1
x[144] 0
x[145] 1
x[146] 0
x[147] 1
x[148] 0
x[149] 0
x[150] 0
x[151] 0
x[152] 0
x[153] 0
x[154] 0
x[155] 0
x[156] 1
x[157] 0
x[158] 1
x[159] 1
x[160] 0
x[161] 1
x[162] 0
x[163] 0
x[164] 1
x[165] 0
x[166] 1
x[167] 0
x[168] 0
x[169] 0
x[170] 0
x[171] 0
x[172] 1
x[173] 0
x[174] 1
x[175] 1
x[176] 0
x[177] 0
x[178] 1
x[179] 0
x[180] 0
x[181] 1
x[182] 0
x[183] 1
x[184] 1
x[185] 0
x[186] 1
x[187] 1
x[188] 0
x[189] 1
x[190] 0
x[191] 0
x[192] 0
x[193] 0
x[194] 1
x[195] 1
x[196] 0
x[197] 1
x[198] 1
x[199] 1
x[200] 1
x[201] 0
x[202] 0
x[203] 0
x[204] 1
x[205] 0
x[206] 1
x[207] 0
x[208] 1
x[209] 1
x[210] 1
x[211] 0
x[212] 0
x[213] 1
x[214] 0
x[215] 1
x[216] 0
x[217] 1
x[218] 0
x[219] 1
x[220] 0
x[221] 0
x[222] 0
x[223] 0
x[224] 1
x[225] 1
x[226] 0
x[227] 0
x[228] 1
x[229] 1
x[230] 1
x[231] 0
x[232] 0
x[233] 1
x[234] 1
x[235] 0
x[236] 0
x[237] 1
x[238] 0
x[239] 0
x[240] 0
x[241] 0
x[242] 0
x[243] 1
x[244] 1
x[245] 1
x[246] 0
x[247] 1
x[248] 1
x[249] 0
x[250] 1
x[251] 0
x[252] 0
x[253] 1
x[254] 1
x[255] 1
x[256] 0
x[257] 1
x[258] 1
x[259] 0
x[260] 1
x[261] 0
x[262] 0
x[263] 1
x[264] 0
x[265] 1
x[266] 1
x[267] 0
x[268] 0
x[269] 0
x[270] 0
x[271] 0
x[272] 1
x[273] 1
x[274] 1
x[275] 0
x[276] 0
x[277] 1
x[278] 0
x[279] 1
x[280] 1
x[281] 1
x[282] 1
x[283] 0
x[284] 0
x[285] 0
x[286] 0
x[287] 0
x[288] 0
x[289] 1
x[290] 1
x[291] 0
x[292] 1
x[293] 1
x[294] 1
x[295] 0
x[296] 0
x[297] 0
x[298] 1
x[299] 0
x[300] 0
x[301] 1
x[302] 0
x[303] 1
x[304] 0
x[305] 0
x[306] 0
x[307] 1
x[308] 1
x[309] 1
x[310] 1
x[311] 1
x[312] 1
x[313] 0
x[314] 1
x[315] 1
x[316] 0
x[317] 1
x[318] 0
x[319] 1
x[320] 1
x[321] 0
x[322] 0
x[323] 0
x[324] 0
x[325] 1
x[326] 1
x[327] 0
x[328] 0
x[329] 0
x[330] 1
x[331] 0
x[332] 1
x[333] 1
x[334] 0
x[335] 1
x[336] 0
x[337] 1
x[338] 1
x[339] 1
x[340] 1
x[341] 1
x[342] 0
x[343] 0
x[344] 0
x[345] 0
x[346] 1
x[347] 0
x[348] 0
x[349] 1
x[350] 0
x[351] 1
x[352] 0
x[353] 0
x[354] 1
x[355] 1
x[356] 0
x[357] 1
x[358] 1
x[359] 1
x[360] 0
x[361] 1
x[362] 0
x[363] 0
x[364] 1
x[365] 0
x[366] 1
x[367] 1
x[368] 1
x[369] 0
x[370] 0
x[371] 0
x[372] 0
x[373] 0
x[374] 0
x[375] 0
x[376] 0
x[377] 1
x[378] 0
x[379] 1
x[380] 0
x[381] 0
x[382] 1
x[383] 0
x[384] 0
x[385] 1
x[386] 0
x[387] 1
x[388] 0
x[389] 1
x[390] 0
x[391] 1
x[392] 0
x[393] 1
x[394] 0
x[395] 0
x[396] 1
x[397] 1
x[398] 0
x[399] 1
x[400] 0
x[401] 1
x[402] 0
x[403] 0
x[404] 0
x[405] 0
x[406] 0
x[407] 0
x[408] 1
x[409] 1
x[410] 0
x[411] 1
x[412] 0
x[413] 1
x[414] 0
x[415] 1
x[416] 0
x[417] 0
x[418] 0
x[419] 0
x[420] 1
x[421] 0
x[422] 0
x[423] 0
x[424] 1
x[425] 0
x[426] 0
x[427] 0
x[428] 0
x[429] 0
x[430] 1
x[431] 0
x[432] 0
x[433] 0
x[434] 1
x[435] 1
x[436] 0
x[437] 1
x[438] 1
x[439] 1
x[440] 0
x[441] 0
x[442] 0
x[443] 0
x[444] 1
x[445] 1
x[446] 1
x[447] 1
x[448] 1
x[449] 0
x[450] 1
x[451] 0
x[452] 0
x[453] 1
x[454] 0
x[455] 1
x[456] 1
x[457] 1
x[458] 0
x[459] 0
x[460] 1
x[461] 0
x[462] 0
x[463] 0
x[464] 1
x[465] 0
x[466] 1
x[467] 1
x[468] 1
x[469] 0
x[470] 0
x[471] 1
x[472] 0
x[473] 1
x[474] 0
x[475] 0
x[476] 0
x[477] 0
x[478] 0
x[479] 1
x[480] 0
x[481] 0
x[482] 1
x[483] 1
x[484] 0
x[485] 0
x[486] 0
x[487] 0
x[488] 0
x[489] 1
x[490] 0
x[491] 1
x[492] 0
x[493] 1
x[494] 0
x[495] 0
x[496] 1
x[497] 1
x[498] 0
x[499] 1
x[500] 1
x[501] 0
x[502] 1
x[503] 0
x[504] 0
x[505] 1
x[506] 0
x[507] 0
x[508] 1
x[509] 0
x[510] 0
x[511] 1
x[512] 1
x[513] 0
x[514] 0
x[515] 1
x[516] 1
x[517] 1
x[518] 0
x[519] 1
x[520] 1
x[521] 0
x[522] 0
x[523] 0
x[524] 0
x[525] 1
x[526] 1
x[527] 0
x[528] 1
x[529] 1
x[530] 1
x[531] 1
x[532] 1
x[533] 0
x[534] 1
x[535] 0
x[536] 1
x[537] 1
x[538] 0
x[539] 1
x[540] 1
x[541] 0
x[542] 0
x[543] 0
x[544] 1
x[545] 0
x[546] 1
x[547] 0
x[548] 0
x[549] 0
x[550] 1
x[551] 1
x[552] 0
x[553] 0
x[554] 1
x[555] 0
x[556] 1
x[557] 1
x[558] 0
x[559] 1
x[560] 1
x[561] 0
x[562] 1
x[563] 0
x[564] 1
x[565] 1
x[566] 0
x[567] 0
x[568] 0
x[569] 1
x[570] 1
x[571] 1
x[572] 0
x[573] 0
x[574] 0
x[575] 1
x[576] 1
x[577] 1
x[578] 0
x[579] 0
x[580] 0
x[581] 1
x[582] 1
x[583] 0
x[584] 1
x[585] 1
x[586] 0
x[587] 0
x[588] 1
x[589] 1
x[590] 1
x[591] 1
x[592] 1
x[593] 1
x[594] 1
x[595] 1
x[596] 0
x[597] 1
x[598] 0
x[599] 0
x[600] 0
x[601] 1
x[602] 0
x[603] 1
x[604] 1
x[605] 0
x[606] 1
x[607] 0
x[608] 0
x[609] 0
x[610] 0
x[611] 1
x[612] 0
x[613] 1
x[614] 0
x[615] 0
x[616] 1
x[617] 1
x[618] 0
x[619] 0
x[620] 0
x[621] 0
x[622] 0
x[623] 1
x[624] 1
x[625] 0
x[626] 0
x[627] 0
x[628] 1
x[629] 1
x[630] 1
x[631] 0
x[632] 1
x[633] 1
x[634] 0
x[635] 1
x[636] 1
x[637] 1
x[638] 0
x[639] 0
x[640] 1
x[641] 1
x[642] 1
x[643] 1
x[644] 0
x[645] 0
x[646] 0
x[647] 1
x[648] 0
x[649] 0
x[650] 0
x[651] 1
x[652] 1
x[653] 0
x[654] 1
x[655] 1
x[656] 0
x[657] 0
x[658] 1
x[659] 1
x[660] 1
x[661] 0
x[662] 1
x[663] 0
x[664] 1
x[665] 0
x[666] 0
x[667] 0
x[668] 1
x[669] 0
x[670] 1
x[671] 1
x[672] 1
x[673] 1
x[674] 1
x[675] 0
x[676] 1
x[677] 0
x[678] 1
x[679] 1
x[680] 0
x[681] 1
x[682] 0
x[683] 0
x[684] 0
x[685] 1
x[686] 0
x[687] 1
x[688] 0
x[689] 1
x[690] 0
x[691] 1
x[692] 1
x[693] 1
x[694] 1
x[695] 1
x[696] 0
x[697] 0
x[698] 0
x[699] 1
x[700] 0
x[701] 1
x[702] 1
x[703] 0
x[704] 0
x[705] 1
x[706] 0
x[707] 1
x[708] 0
x[709] 1
x[710] 0
x[711] 1
x[712] 1
x[713] 1
x[714] 1
x[715] 0
x[716] 0
x[717] 1
x[718] 0
x[719] 0
x[720] 0
x[721] 1
x[722] 1
x[723] 1
x[724] 0
x[725] 0
x[726] 0
x[727] 0
x[728] 0
x[729] 1
x[730] 1
x[731] 0
x[732] 0
x[733] 0
x[734] 0
x[735] 0
x[736] 0
x[737] 1
x[738] 1
x[739] 0
x[740] 0
x[741] 0
x[742] 0
x[743] 0
x[744] 1
x[745] 0
x[746] 0
x[747] 1
x[748] 0
x[749] 0
x[750] 0
x[751] 0
x[752] 0
x[753] 0
x[754] 0
x[755] 0
x[756] 1
x[757] 0
x[758] 1
x[759] 1
x[760] 1
x[761] 1
x[762] 0
x[763] 0
x[764] 0
x[765] 1
x[766] 0
x[767] 0
x[768] 1
x[769] 1
x[770] 0
x[771] 1
x[772] 0
x[773] 1
x[774] 1
x[775] 0
x[776] 1
x[777] 0
x[778] 0
x[779] 0
x[780] 1
x[781] 0
x[782] 0
x[783] 1
x[784] 1
x[785] 1
x[786] 0
x[787] 1
x[788] 0
x[789] 1
x[790] 0
x[791] 0
x[792] 1
x[793] 1
x[794] 0
x[795] 1
x[796] 0
x[797] 1
x[798] 1
x[799] 0
x[800] 1
x[801] 0
x[802] 1
x[803] 1
x[804] 1
x[805] 1
x[806] 1
x[807] 0
x[808] 0
x[809] 1
x[810] 1
x[811] 0
x[812] 0
x[813] 0
x[814] 0
x[815] 0
x[816] 0
x[817] 0
x[818] 0
x[819] 1
x[820] 1
x[821] 0
x[822] 0
x[823] 0
x[824] 0
x[825] 0
x[826] 0
x[827] 1
x[828] 1
x[829] 0
x[830] 0
x[831] 0
x[832] 0
x[833] 0
x[834] 0
x[835] 1
x[836] 1
x[837] 1
x[838] 1
x[839] 0
x[840] 0
x[841] 0
x[842] 1
x[843] 1
x[844] 0
x[845] 1
x[846] 0
x[847] 0
x[848] 1
x[849] 1
x[850] 1
x[851] 1
x[852] 0
x[853] 1
x[854] 1
x[855] 1
x[856] 1
x[857] 1
x[858] 0
x[859] 0
x[860] 0
x[861] 1
x[862] 0
x[863] 0
x[864] 0
x[865] 0
x[866] 0
x[867] 0
x[868] 1
x[869] 0
x[870] 0
x[871] 0
x[872] 0
x[873] 1
x[874] 1
x[875] 1
x[876] 1
x[877] 1
x[878] 0
x[879] 0
x[880] 0
x[881] 1
x[882] 0
x[883] 0
x[884] 1
x[885] 1
x[886] 0
x[887] 1
x[888] 1
x[889] 1
x[890] 1
x[891] 0
x[892] 0
x[893] 1
x[894] 1
x[895] 1
x[896] 0
x[897] 1
x[898] 1
x[899] 0
x[900] 0
x[901] 0
x[902] 1
x[903] 0
x[904] 1
x[905] 1
x[906] 0
x[907] 0
x[908] 0
x[909] 1
x[910] 1
x[911] 0
x[912] 0
x[913] 0
x[914] 1
x[915] 0
x[916] 0
x[917] 0
x[918] 0
x[919] 1
x[920] 0
x[921] 1
x[922] 1
x[923] 0
x[924] 0
x[925] 1
x[926] 1
x[927] 1
x[928] 0
x[929] 1
x[930] 1
x[931] 1
x[932] 1
x[933] 0
x[934] 0
x[935] 1
x[936] 1
x[937] 0
x[938] 1
x[939] 1
x[940] 0
x[941] 1
x[942] 1
x[943] 1
x[944] 1
x[945] 0
x[946] 1
x[947] 0
x[948] 0
x[949] 0
x[950] 0
x[951] 1
x[952] 0
x[953] 0
x[954] 0
x[955] 0
x[956] 1
x[957] 1
x[958] 0
x[959] 1
x[960] 1
x[961] 0
x[962] 0
x[963] 1
x[964] 1
x[965] 1
x[966] 1
x[967] 0
x[968] 1
x[969] 0
x[970] 1
x[971] 0
x[972] 0
x[973] 1
x[974] 0
x[975] 1
x[976] 0
x[977] 0
x[978] 1
x[979] 0
x[980] 0
x[981] 0
x[982] 0
x[983] 0
x[984] 0
x[985] 0
x[986] 0
x[987] 1
x[988] 1
x[989] 1
x[990] 1
x[991] 1
x[992] 1
x[993] 0
x[994] 0
x[995] 0
x[996] 0
x[997] 0
x[998] 1
x[999] 1
